Version identifier: 22.1.1.0 | 2022-11-28 | 9160aff4d
CPXPARAM_ClockType                               1
CPXPARAM_Read_DataCheck                          1
CPXPARAM_Threads                                 1
CPXPARAM_TimeLimit                               7200
CPXPARAM_MIP_Tolerances_AbsMIPGap                0
CPXPARAM_MIP_Tolerances_MIPGap                   0
CPXPARAM_MIP_Tolerances_Integrality              0
Tried aggregator 5 times.
MIP Presolve eliminated 13422 rows and 3182 columns.
MIP Presolve modified 8 coefficients.
Aggregator did 1351 substitutions.
Reduced MIP has 5662 rows, 2635 columns, and 18194 nonzeros.
Reduced MIP has 2635 binaries, 0 generals, 0 SOSs, and 0 indicators.
Presolve time = 0.05 sec. (37.96 ticks)
Found incumbent of value 0.000000 after 0.06 sec. (42.35 ticks)
Probing time = 0.01 sec. (2.87 ticks)
Tried aggregator 1 time.
Detecting symmetries...
Reduced MIP has 5662 rows, 2635 columns, and 18194 nonzeros.
Reduced MIP has 2635 binaries, 0 generals, 0 SOSs, and 0 indicators.
Presolve time = 0.02 sec. (12.46 ticks)
Probing time = 0.00 sec. (2.82 ticks)
Clique table members: 4871.
MIP emphasis: balance optimality and feasibility.
MIP search method: dynamic search.
Parallel mode: none, using 1 thread.
Root relaxation solution time = 0.11 sec. (57.22 ticks)

        Nodes                                         Cuts/
   Node  Left     Objective  IInf  Best Integer    Best Bound    ItCnt     Gap

*     0+    0                            0.0000     2436.0000              --- 
      0     0     1218.0000   816        0.0000     1218.0000     1362     --- 
*     0+    0                         1194.0000     1218.0000             2.01%
      0     0     1218.0000   275     1194.0000   ZeroHalf: 1     1364    2.01%
*     0     0      integral     0     1218.0000      Cuts: 89     1459    0.00%
      0     0        cutoff           1218.0000     1218.0000     1459    0.00%
Elapsed time = 0.59 sec. (380.92 ticks, tree = 0.01 MB, solutions = 3)

Clique cuts applied:  6
Implied bound cuts applied:  3
Zero-half cuts applied:  28
Gomory fractional cuts applied:  3

Root node processing (before b&c):
  Real time             =    0.59 sec. (381.23 ticks)
Sequential b&c:
  Real time             =    0.00 sec. (0.00 ticks)
                          ------------
Total (root+branch&cut) =    0.59 sec. (381.23 ticks)
Solution is feasible.

---------------------
@@@ MIP_optimal
>>> Benchmark mc2024_track1_181.cnf k 5 OPT 1218 TimeCost 2.9803531169891357 TimeSolve 0.6019008159637451 TimeRead 0.005890369415283203 TimeTrans 2.3725619316101074
